c 9th DIMACS Implementation Challenge: Shortest Paths
c http://www.dis.uniroma1.it/~challenge9
c Sample graph file
c
c graph contains 6 nodes and 8 arcs
c node ids are numbers in 1..6
c arc from node 1 to node 2 of weight 17
p sp 6 8
e 1 2
e 1 3
e 2 4
e 3 5
e 4 3
e 4 6
e 5 2
e 5 6
